%chk=c1c2im_tos.chk
%mem=56Gb
%nprocs=12

#wb97xd/def2svp/w06 opt(tight) freq temperature=379.6 scale=0.9788

 c1c2im_tos

0  1
C          -2.06420        -2.74272         0.73218
C          -2.93075        -2.15919        -0.37767
N          -3.22796        -0.76007        -0.08226
C          -3.83283        -0.29824         1.05595
C          -3.72128         1.05537         1.03981
N          -3.05646         1.38400        -0.10986
C          -2.75050         0.27222        -0.77034
C          -2.54234         2.70190        -0.43642
C           6.08929        -0.06831         0.44850
C           4.59644        -0.02563         0.25661
C           4.02220        -0.55652        -0.89706
C           2.64941        -0.50490        -1.08761
C           1.85272         0.08081        -0.11901
C           2.40216         0.61158         1.03463
C           3.77627         0.55723         1.21986
S           0.09773         0.16721        -0.37043
O          -0.25834        -1.03217        -1.14659
O          -0.51298         0.18383         0.96515
O          -0.14561         1.41099        -1.11817
H          -2.61686        -2.79859         1.66958
H          -1.18499        -2.11568         0.87280
H          -1.74708        -3.74427         0.44539
H          -3.87441        -2.70420        -0.48184
H          -2.38894        -2.17678        -1.32583
H          -4.28763        -0.95780         1.77367
H          -4.05374         1.79989         1.74159
H          -2.19456         0.21761        -1.69015
H          -2.29852         2.73097        -1.49579
H          -1.62893         2.85987         0.13920
H          -3.28712         3.45762        -0.18982
H           6.50741        -0.98650         0.03422
H           6.34877        -0.00859         1.50583
H           6.55487         0.77655        -0.06471
H           4.65367        -1.01668        -1.65009
H           2.19617        -0.92420        -1.97785
H           1.75846         1.05522         1.78485
H           4.21400         0.96898         2.12345

