%chk=c1c2im_no3.jgf
%mem=56Gb
%nprocs=12

#wb97xd/def2svp/w06 opt(tight) freq temperature=298.2 scale=0.9788

 c1c2im_no3.jgf

0  1
C           2.69834         0.59952         0.24892
C           2.36250        -0.88457         0.35313
N           0.96170        -1.10102         0.00548
C           0.47087        -1.22455        -1.27115
C          -0.88178        -1.23187        -1.17330
N          -1.18778        -1.11209         0.15622
C          -0.05977        -0.98070         0.85262
C          -2.50934        -0.85727         0.70592
N          -0.57543         1.68535        -0.07748
O          -0.31474         1.34495         1.09550
O          -1.71726         1.54148        -0.49867
O           0.31828         2.09430        -0.79889
H           2.05345         1.17701         0.90992
H           2.53718         0.95217        -0.76796
H           3.74006         0.75353         0.52715
H           2.51426        -1.25119         1.37249
H           2.97344        -1.47960        -0.33177
H           1.11923        -1.29348        -2.12641
H          -1.64582        -1.28596        -1.92798
H           0.01465        -0.89055         1.92108
H          -2.43939         0.02872         1.33795
H          -2.84772        -1.71800         1.28486
H          -3.19172        -0.65766        -0.11619

