%chk=n.chk
%nprocs=12
%mem=32Gb

#CBS-QB3

 n

0  4 
N           0.00000         0.00000         0.00000

