%nprocs=12
#g2

water

0 1
O           0.94349        -0.05055        -0.05940
H           1.91138        -0.09664        -0.05386
H           0.66464        -0.97192         0.05135

