%chk=c1c2cim_bf4.chk
%mem=56Gb
%nprocs=12

#wb97xd/def2svp/w06 opt(tight) freq temperature=365.1 scale=0.9788

c1c2im_bf4

0  1
B           1.93796         0.20770        -0.11557
F           3.12312         0.53833        -0.69834
F           2.02457        -0.99959         0.62382
F           0.91132         0.01606        -1.08326
F           1.47660         1.22137         0.76476
C          -0.96129         2.58715        -0.52272
C          -1.46054         1.86548         0.72423
N          -1.58923         0.44058         0.43344
C          -2.48270        -0.12652        -0.43796
C          -2.09999        -1.41917        -0.60784
N          -0.98623        -1.60801         0.16587
C          -0.68130        -0.46711         0.77511
C          -0.09021        -2.75082         0.11952
H          -0.01798         2.14666        -0.84279
H          -0.80430         3.63884        -0.28807
H          -1.68666         2.50520        -1.33162
H          -2.43235         2.24643         1.05161
H          -0.73260         1.96456         1.53283
H          -3.30647         0.42531        -0.85544
H          -2.52329        -2.20780        -1.20491
H           0.15591        -0.30861         1.43255
H           0.42215        -2.83613         1.07566
H           0.65009        -2.56250        -0.66034
H          -0.65790        -3.65387        -0.09733

