%chk=carbon.chk
%nprocs=12

#G2

carbon

0 3
C          -4.69883         2.55874         0.00000

