#Put Keywords Here, check Charge and Multiplicity.

 -46.44742939

0  5
C           0.95090         2.71343        -0.41085
C           1.51693         1.93574         0.77152
N           1.71430         0.54053         0.38769
C           2.48284         0.10351        -0.65790
C           2.22033        -1.22013        -0.81322
N           1.30322        -1.55680         0.14453
C           0.99536        -0.47585         0.85344
C           0.58700        -2.81761         0.21764
C          -3.36973         0.34957        -0.56331
S          -1.70163         0.02467        -0.02005
O          -1.74053        -1.29650         0.62510
O          -0.86132         0.04354        -1.22335
O          -1.36755         1.10500         0.92121
H           0.69018         3.71859        -0.08290
H           0.05566         2.21304        -0.77726
H           1.67936         2.77951        -1.21851
H           0.80497         1.94103         1.59977
H           2.47476         2.34759         1.10503
H           3.14467         0.75731        -1.19783
H           2.60394        -1.93848        -1.51622
H           0.27456        -0.42856         1.65117
H          -0.21413        -2.79322        -0.52284
H           0.14669        -2.91466         1.20724
H           1.27165        -3.64051         0.01612
H          -3.65080        -0.43055        -1.26343
H          -3.38252         1.32372        -1.04148
H          -4.01282         0.33741         0.31067

