%chk=c2c1im_c4n3.chk
%nprocs=12
%mem=32Gb

#CBS-QB3

c2c1im_c4n3
 
0  1
C           2.86669        -0.62973        -0.56678
C           2.71644         0.76657         0.02643
N           1.32382         1.01794         0.38739
C           0.73199         0.63921         1.56409
C          -0.58140         0.96970         1.46786
N          -0.76173         1.53049         0.23115
C           0.39982         1.54034        -0.42172
C          -2.04333         1.94742        -0.31309
C          -0.03497        -2.09243         0.50636
C          -0.94952        -1.57662        -0.41742
C          -0.43154        -0.92176        -1.53152
N           0.03392        -0.27343        -2.37857
C          -2.25998        -1.27421        -0.03631
N          -3.31532        -0.90632         0.27455
N           0.77471        -2.41124         1.27330
H           2.54590        -1.38207         0.15365
H           3.91205        -0.79756        -0.82148
H           2.25770        -0.72160        -1.46551
H           3.01767         1.53308        -0.69306
H           3.31807         0.87466         0.93304
H           1.28046         0.14333         2.34532
H          -1.39962         0.83062         2.15228
H           0.55863         1.88057        -1.43004
H          -1.95817         2.01215        -1.39648
H          -2.31960         2.91780         0.10120
H          -2.79414         1.19861        -0.04430

