%chk=c1c2im_ncn2.chk
%mem=56Gb
%nprocs=12

#wb97xd/def2svp/w06 opt(tight) freq temperature=298.2 scale=0.9788

 c1c2c2im_ncn2

0  1
C           2.85003         1.15347         0.35006
C           2.81124        -0.35176         0.10786
N           1.43153        -0.82289         0.12979
C           0.71623        -1.13443         1.26130
C          -0.55608        -1.38909         0.86787
N          -0.59375        -1.21953        -0.49236
C           0.60693        -0.81954        -0.92208
C          -1.79604        -1.28078        -1.30562
C          -0.57642         1.73768        -0.56686
N           0.27457         1.52453        -1.34508
N          -1.46904         1.96602         0.31732
C          -2.28495         1.06898         0.76750
N          -2.98307         0.23926         1.19173
H           2.44408         1.38910         1.33285
H           2.24974         1.66112        -0.40707
H           3.87985         1.50268         0.29301
H           3.36442        -0.89385         0.88018
H           3.23424        -0.59828        -0.87000
H           1.17349        -1.15644         2.23458
H          -1.44081        -1.63381         1.42992
H           0.88934        -0.65352        -1.94503
H          -1.88827        -2.26867        -1.75962
H          -1.72959        -0.51740        -2.08036
H          -2.65294        -1.08034        -0.66034

