%chk=methanol.chk
%nprocs=12

#g2

 methanol

0  1
C          -6.61411         2.68732         0.00000
O          -1.76206         4.23028         0.00000
H          -6.73811         1.90033        -0.71426
H          -7.24941         3.50816        -0.25983
H          -6.87450         2.32920         0.97409
H          -1.52601         4.55492        -0.88306

