%chk=s.chk
%nprocs=12
#CBS-QB3

 s

0  3
S           0.00000         0.00000         0.00000

